\ This file was automatically generated by Zimpl
\ set p := {1 to 6};
\ set o := {1 to 3};
\ set d := { 1 to 5};
\ set od := o * d;
\ param OD[od] :=     <1, 1> 0.1, <1, 2> 0.1,  <1, 3> 0.1,  <1, 4> 0.1,  <1, 5> 0.6,     <1, 1> 0.1, <1, 2> 0.15, <1, 3> 0.15, 
\ <1, 4> 0.15, <1, 5> 0.45,     <1, 1> 0.1, <1, 2> 0.20, <1, 3> 0.2,  <1, 4> 0.2,  <1, 5> 0.3;
\ param D[o] := <1> 70000, <2> 100000, <3> 50000;
\ param C[o] := <1> 3, <2> 2.5, <3> 3.0;
\ param V[p] := <1> 2.1, <2> 3.5, <3> 3.3, <4> 3.1, <5> 2.5, <6> 2.8;
\ param Max[p] := <1> 10000, <2> 20000, <3> 20000, <4> 25000, <5> 20000, <6> 20000;
\ param Min[p] := <1> 5000, <2> 13000, <3> 15000, <4> 10000, <5> 10000, <6> 12000;
\ var X[o] >= 0;
\ var Y[p] >= 0;
\ param M := 100000;
\ maximize lucro :     (sum <px> in p : Y[px] * V[px]) -         (sum <ox> in o : X[ox] * C[ox]);
\ subto c1:     forall <ox>in o :         X[ox] <= D[ox];
\ subto c2:     sum <px> in p : Y[px]  <= M;
\ subto c3:     forall <px> in p :         Y[px] <= Max[px] and Y[px] >= Min[px];
\Problem name: file
Maximize
 lucro:  -3 X#1 -2.5 X#2 -3 X#3 +2.1 Y#1 +3.5 Y#2 +3.3 Y#3
  +3.1 Y#4 +2.5 Y#5 +2.8 Y#6
Subject to
 c1_1:
  + X#1 <= 70000
 c1_2:
  + X#2 <= 100000
 c1_3:
  + X#3 <= 50000
 c2_1:
  + Y#6 + Y#5 + Y#4 + Y#3 + Y#2 + Y#1
  <= 100000
 c3_1:
  + Y#1 <= 10000
 c3_2:
  + Y#1 >= 5000
 c3_3:
  + Y#2 <= 20000
 c3_4:
  + Y#2 >= 13000
 c3_5:
  + Y#3 <= 20000
 c3_6:
  + Y#3 >= 15000
 c3_7:
  + Y#4 <= 25000
 c3_8:
  + Y#4 >= 10000
 c3_9:
  + Y#5 <= 20000
 c3_10:
  + Y#5 >= 10000
 c3_11:
  + Y#6 <= 20000
 c3_12:
  + Y#6 >= 12000
Bounds
 0 <= X#1 <= +inf
 0 <= X#2 <= +inf
 0 <= X#3 <= +inf
 0 <= Y#1 <= +inf
 0 <= Y#2 <= +inf
 0 <= Y#3 <= +inf
 0 <= Y#4 <= +inf
 0 <= Y#5 <= +inf
 0 <= Y#6 <= +inf
End
